CMPL model generation - running

CMPL version: 1.11.0
Authors: Thomas Schleiff, Mike Steglich
Distributed under the GPLv3 

create model instance ...
write model instance ...
CMPL model generation - finished

Solver - running


Welcome to IBM(R) ILOG(R) CPLEX(R) Interactive Optimizer 12.7.1.0
  with Simplex, Mixed Integer & Barrier Optimizers
5725-A06 5725-A29 5724-Y48 5724-Y49 5724-Y54 5724-Y55 5655-Y21
Copyright IBM Corp. 1988, 2017.  All Rights Reserved.

Type 'help' for a list of available commands.
Type 'help' followed by a command name for more
information on commands.

CPLEX> Specified objective sense: MINIMIZE
Selected objective  name:  line[1]
Selected RHS        name:  RHS
Selected bound      name:  BOUND
Problem '/tmp/cmpl.T24817.mps' read.
Read time = 0.06 sec. (8.20 ticks)
CPLEX> CPXPARAM_Read_APIEncoding                        "UTF-8"
Tried aggregator 3 times.
MIP Presolve eliminated 18927 rows and 30092 columns.
MIP Presolve modified 340 coefficients.
Aggregator did 880 substitutions.
Reduced MIP has 2548 rows, 3621 columns, and 10559 nonzeros.
Reduced MIP has 3453 binaries, 0 generals, 0 SOSs, and 0 indicators.
Presolve time = 0.06 sec. (41.18 ticks)
Found incumbent of value 2440.081686 after 0.15 sec. (75.21 ticks)
Probing fixed 37 vars, tightened 0 bounds.
Probing time = 0.02 sec. (4.84 ticks)
Tried aggregator 1 time.
MIP Presolve eliminated 0 rows and 37 columns.
MIP Presolve modified 259 coefficients.
Reduced MIP has 2548 rows, 3584 columns, and 10485 nonzeros.
Reduced MIP has 3584 binaries, 0 generals, 0 SOSs, and 0 indicators.
Presolve time = 0.01 sec. (10.18 ticks)
Probing time = 0.01 sec. (2.72 ticks)
Clique table members: 6487.
MIP emphasis: balance optimality and feasibility.
MIP search method: dynamic search.
Parallel mode: none, using 1 thread.
Root relaxation solution time = 0.01 sec. (9.55 ticks)

        Nodes                                         Cuts/
   Node  Left     Objective  IInf  Best Integer    Best Bound    ItCnt     Gap

*     0+    0                         2440.0817        0.0000           100.00%
*     0     0      integral     0      716.4171      716.4171      498    0.00%
Elapsed time = 0.22 sec. (110.68 ticks, tree = 0.00 MB, solutions = 2)

Root node processing (before b&c):
  Real time             =    0.22 sec. (111.92 ticks)
Sequential b&c:
  Real time             =    0.00 sec. (0.00 ticks)
                          ------------
Total (root+branch&cut) =    0.22 sec. (111.92 ticks)

Solution pool: 2 solutions saved.

MIP - Integer optimal solution:  Objective =  7.1641714500e+02
Solution time =    0.22 sec.  Iterations = 498  Nodes = 0
Deterministic time = 112.02 ticks  (499.00 ticks/sec)

CPLEX> Incumbent solution written to file '/tmp/cmpl.T24817.gsol'.
CPLEX> 
CMPL: Time used for model generation: 1 seconds
CMPL: Time used for solving the model: 1 seconds


Solution written to ASCII file: results/output_generated_conf_0.9/2017-09-04-4/fair-nonlinear.sol

Solver - finished
